# DGP instance in .dat format

param : E : c I :=
  7 10  8.000 0
  7 8  1.000 0
  3 7  6.000 0
  1 7  10.000 0
  5 7  3.000 0
  3 8  7.000 0
  6 9  8.000 0
  2 6  7.000 0
  6 10  9.000 0
  8 9  6.000 0
  4 9  11.000 0
  2 9  15.000 0
  7 9  7.000 0
  4 10  12.000 0
  2 5  5.000 0
  4 5  1.000 0
  4 7  4.000 0
  1 4  6.000 0
  3 4  2.000 0
  8 10  7.000 0
  3 6  5.000 0
  3 9  13.000 0
;
